 Code   731
 Dimension, Fixed Cost
   100        3000
 Facility, Client, Transportation Cost
     1       26           4
     1       46           2
     1       55           3
     1       66           4
     1       75           1
     1       76           1
     1       85           0
     1       86           0
     1       93           0
     1       99           1
     2        1           3
     2        3           4
     2       29           0
     2       55           4
     2       60           4
     2       67           3
     2       74           4
     2       75           1
     2       81           4
     2       86           3
     3       11           3
     3       21           4
     3       33           1
     3       62           3
     3       71           1
     3       72           1
     3       78           2
     3       84           3
     3       87           1
     3       94           1
     4       24           4
     4       36           3
     4       40           1
     4       44           1
     4       62           4
     4       68           2
     4       76           0
     4       84           2
     4       86           0
     4      100           3
     5       17           1
     5       18           4
     5       22           3
     5       34           1
     5       48           2
     5       51           0
     5       71           4
     5       79           3
     5       93           0
     5       96           0
     6        4           0
     6       14           3
     6       23           4
     6       24           1
     6       25           1
     6       39           1
     6       49           4
     6       52           2
     6       72           2
     6       93           0
     7       14           3
     7       15           3
     7       24           0
     7       35           3
     7       53           2
     7       56           2
     7       57           3
     7       64           1
     7       88           0
     7       92           1
     8       16           1
     8       39           2
     8       49           1
     8       62           0
     8       66           2
     8       73           0
     8       78           1
     8       86           1
     8       96           1
     8       97           3
     9       25           0
     9       27           2
     9       34           3
     9       42           3
     9       50           4
     9       63           4
     9       74           4
     9       83           1
     9       89           2
     9       93           4
    10       26           0
    10       34           3
    10       35           4
    10       37           3
    10       59           2
    10       71           2
    10       80           2
    10       87           2
    10       91           4
    10       95           3
    11        8           1
    11       12           0
    11       20           2
    11       22           1
    11       49           0
    11       52           3
    11       57           0
    11       70           2
    11       81           0
    11       95           2
    12        6           0
    12        9           3
    12       21           1
    12       32           1
    12       36           2
    12       42           3
    12       44           2
    12       54           1
    12       84           2
    12       88           0
    13        4           1
    13        9           3
    13       12           1
    13       23           3
    13       29           1
    13       37           3
    13       53           3
    13       80           0
    13       91           1
    13       95           2
    14       17           0
    14       41           3
    14       45           3
    14       48           2
    14       65           2
    14       74           3
    14       79           2
    14       90           0
    14       92           3
    14       97           2
    15        5           4
    15        6           4
    15       13           2
    15       29           4
    15       30           1
    15       32           0
    15       34           3
    15       56           4
    15       71           4
    15       90           2
    16        5           0
    16       14           3
    16       15           1
    16       21           0
    16       40           4
    16       46           3
    16       53           3
    16       72           1
    16       77           3
    16       78           0
    17        2           3
    17       31           2
    17       49           4
    17       53           1
    17       72           4
    17       78           0
    17       83           3
    17       88           4
    17       92           3
    17       98           4
    18        3           3
    18        8           3
    18       14           2
    18       35           4
    18       45           3
    18       55           2
    18       72           3
    18       86           2
    18       89           0
    18       95           1
    19        1           1
    19       11           3
    19       21           2
    19       30           4
    19       31           1
    19       62           0
    19       72           1
    19       73           0
    19       92           4
    19       97           4
    20        9           1
    20       10           4
    20       29           0
    20       32           4
    20       57           0
    20       63           3
    20       64           4
    20       75           1
    20       89           2
    20       96           1
    21        3           0
    21        7           3
    21       11           4
    21       13           2
    21       14           3
    21       18           1
    21       39           3
    21       55           1
    21       62           1
    21       80           3
    22        9           4
    22       10           0
    22       15           3
    22       17           3
    22       34           3
    22       50           4
    22       59           3
    22       85           1
    22       97           1
    22      100           3
    23       12           1
    23       13           0
    23       24           4
    23       45           0
    23       51           4
    23       57           2
    23       65           0
    23       68           4
    23       70           1
    23       87           2
    24       47           2
    24       68           4
    24       71           3
    24       72           3
    24       78           1
    24       80           4
    24       84           0
    24       89           2
    24       97           1
    24       98           0
    25        6           1
    25       10           3
    25       20           0
    25       21           2
    25       35           3
    25       44           4
    25       57           2
    25       83           4
    25       85           1
    25       90           4
    26        9           1
    26       33           1
    26       38           2
    26       39           0
    26       48           3
    26       67           4
    26       69           0
    26       72           2
    26       99           2
    26      100           4
    27       26           4
    27       32           1
    27       44           3
    27       49           4
    27       52           4
    27       54           3
    27       60           1
    27       65           1
    27       87           1
    27       95           2
    28        4           4
    28       11           3
    28       18           3
    28       22           0
    28       26           3
    28       31           4
    28       34           0
    28       38           2
    28       42           4
    28       68           2
    29       20           2
    29       21           2
    29       39           0
    29       42           2
    29       51           2
    29       62           1
    29       70           2
    29       73           1
    29       77           4
    29      100           2
    30       12           0
    30       20           4
    30       26           2
    30       30           3
    30       56           1
    30       62           0
    30       63           1
    30       75           1
    30       90           2
    30       92           1
    31        8           4
    31       15           0
    31       31           3
    31       35           2
    31       36           4
    31       37           0
    31       40           1
    31       51           0
    31       72           4
    31       91           3
    32        2           4
    32        6           0
    32       33           3
    32       43           2
    32       51           4
    32       79           0
    32       82           4
    32       83           1
    32       88           0
    32       93           4
    33       14           1
    33       33           0
    33       37           0
    33       42           3
    33       51           1
    33       55           1
    33       67           2
    33       74           0
    33       80           1
    33       87           3
    34        8           0
    34       14           4
    34       18           2
    34       27           2
    34       34           0
    34       50           2
    34       69           2
    34       73           2
    34       78           4
    34       89           2
    35       13           0
    35       27           3
    35       49           2
    35       54           1
    35       58           3
    35       59           2
    35       63           3
    35       89           3
    35       91           3
    35       99           2
    36       12           2
    36       33           1
    36       40           2
    36       50           1
    36       60           3
    36       62           0
    36       75           2
    36       76           0
    36       88           1
    36       93           2
    37        9           2
    37       10           0
    37       25           1
    37       26           3
    37       27           0
    37       35           3
    37       59           0
    37       60           1
    37       77           0
    37       82           2
    38       25           3
    38       32           1
    38       49           3
    38       57           0
    38       70           2
    38       74           4
    38       79           4
    38       95           1
    38       97           0
    38       98           1
    39        2           2
    39        5           4
    39       20           4
    39       21           1
    39       23           2
    39       43           2
    39       54           0
    39       65           3
    39       74           4
    39       85           1
    40       16           0
    40       21           4
    40       44           3
    40       49           0
    40       54           1
    40       66           0
    40       70           1
    40       73           4
    40       89           0
    40       94           4
    41        8           0
    41        9           3
    41       24           0
    41       30           4
    41       31           0
    41       48           1
    41       63           3
    41       82           1
    41       88           4
    41       99           2
    42        5           1
    42       13           1
    42       20           2
    42       32           4
    42       44           1
    42       54           1
    42       56           3
    42       62           3
    42       91           0
    42       99           2
    43       27           4
    43       31           0
    43       45           4
    43       57           0
    43       67           4
    43       79           0
    43       83           2
    43       91           3
    43       96           2
    43       99           1
    44       22           0
    44       29           1
    44       39           1
    44       46           1
    44       57           4
    44       59           0
    44       62           0
    44       73           1
    44       84           3
    44       94           4
    45       14           0
    45       16           1
    45       23           3
    45       29           2
    45       36           4
    45       38           1
    45       55           2
    45       71           0
    45       73           0
    45       85           2
    46       12           4
    46       21           2
    46       22           3
    46       32           4
    46       37           4
    46       48           0
    46       57           3
    46       67           1
    46       82           3
    46       98           3
    47        3           4
    47        7           1
    47       14           0
    47       35           3
    47       36           3
    47       38           3
    47       42           0
    47       50           2
    47       66           1
    47       78           0
    48        2           4
    48       14           1
    48       15           1
    48       16           0
    48       27           4
    48       43           4
    48       46           1
    48       47           3
    48       56           3
    48       93           4
    49        3           3
    49        4           1
    49       22           1
    49       34           4
    49       35           3
    49       53           2
    49       56           2
    49       62           3
    49       73           3
    49      100           1
    50       31           0
    50       48           0
    50       50           3
    50       61           3
    50       66           1
    50       67           4
    50       71           4
    50       76           3
    50       78           3
    50       96           2
    51        8           4
    51       10           2
    51       12           0
    51       13           3
    51       16           3
    51       20           2
    51       38           1
    51       76           3
    51       91           3
    51       93           3
    52        2           1
    52        5           0
    52        8           4
    52       13           4
    52       20           4
    52       25           4
    52       42           4
    52       47           2
    52       79           3
    52       85           3
    53        1           3
    53        4           2
    53       35           4
    53       46           4
    53       47           2
    53       58           4
    53       79           4
    53       93           2
    53       97           1
    53       98           1
    54        9           4
    54       11           2
    54       35           0
    54       37           4
    54       39           2
    54       45           3
    54       47           0
    54       49           4
    54       60           3
    54       67           3
    55        1           3
    55       15           4
    55       17           3
    55       25           4
    55       26           1
    55       40           2
    55       54           2
    55       65           3
    55       78           2
    55       93           2
    56        6           2
    56       17           2
    56       27           3
    56       33           4
    56       34           3
    56       35           0
    56       37           1
    56       75           4
    56       88           1
    56       93           2
    57       12           1
    57       17           4
    57       32           0
    57       39           0
    57       60           2
    57       68           0
    57       70           2
    57       76           0
    57       80           1
    57       92           1
    58        4           0
    58       39           0
    58       42           0
    58       46           1
    58       54           4
    58       60           3
    58       61           2
    58       78           3
    58       86           1
    58       99           2
    59        3           3
    59        4           1
    59       15           1
    59       18           2
    59       27           3
    59       45           4
    59       47           1
    59       86           0
    59       94           4
    59       97           2
    60        5           1
    60        6           2
    60       14           3
    60       30           2
    60       31           1
    60       54           2
    60       63           2
    60       65           3
    60       81           1
    60      100           3
    61        4           1
    61       16           1
    61       20           1
    61       23           4
    61       59           4
    61       62           2
    61       65           2
    61       69           1
    61       84           2
    61       89           2
    62        9           1
    62       22           1
    62       42           1
    62       62           2
    62       66           4
    62       79           1
    62       82           4
    62       84           0
    62       91           2
    62       97           1
    63       15           2
    63       30           4
    63       56           3
    63       57           4
    63       61           2
    63       71           0
    63       77           0
    63       83           4
    63       92           3
    63       97           2
    64        4           4
    64       28           2
    64       48           1
    64       62           1
    64       64           4
    64       71           1
    64       80           4
    64       84           1
    64       89           0
    64       93           3
    65       13           4
    65       23           3
    65       57           0
    65       60           0
    65       76           1
    65       80           3
    65       83           1
    65       92           2
    65       95           0
    65       97           3
    66       11           4
    66       13           3
    66       21           0
    66       29           2
    66       35           2
    66       51           4
    66       54           1
    66       65           0
    66       73           4
    66       89           0
    67        6           0
    67        7           4
    67       31           1
    67       44           2
    67       53           3
    67       58           3
    67       59           1
    67       78           3
    67       83           0
    67       85           1
    68       12           4
    68       21           2
    68       28           2
    68       33           0
    68       62           1
    68       64           3
    68       82           0
    68       93           0
    68       96           3
    68       99           0
    69        1           4
    69        3           0
    69        7           4
    69       13           3
    69       28           0
    69       49           3
    69       62           0
    69       66           3
    69       82           4
    69       86           2
    70        4           2
    70        9           1
    70       30           0
    70       51           2
    70       57           0
    70       73           1
    70       76           4
    70       84           0
    70       87           2
    70      100           3
    71        9           0
    71       20           0
    71       23           2
    71       45           3
    71       49           3
    71       51           2
    71       67           0
    71       68           0
    71       91           0
    71       94           2
    72        3           3
    72        5           3
    72       27           3
    72       45           1
    72       69           4
    72       73           0
    72       77           2
    72       80           1
    72       81           0
    72       97           4
    73        1           3
    73        2           0
    73        3           0
    73       22           4
    73       51           3
    73       61           1
    73       72           2
    73       78           3
    73       93           2
    73       99           3
    74        2           1
    74        9           4
    74       19           1
    74       36           0
    74       42           2
    74       62           4
    74       65           0
    74       66           1
    74       98           3
    74       99           3
    75        1           3
    75        4           0
    75        6           2
    75       13           2
    75       16           2
    75       21           1
    75       22           1
    75       36           3
    75       41           2
    75       81           2
    76       11           0
    76       15           3
    76       40           3
    76       41           3
    76       42           1
    76       46           4
    76       54           2
    76       58           1
    76       59           0
    76       64           0
    77       12           3
    77       17           3
    77       22           2
    77       47           0
    77       50           4
    77       56           0
    77       78           1
    77       83           3
    77       92           3
    77       98           0
    78        3           1
    78        4           4
    78       14           4
    78       31           0
    78       49           1
    78       54           3
    78       57           3
    78       65           4
    78       78           1
    78       86           2
    79        4           2
    79       13           0
    79       17           3
    79       49           3
    79       53           1
    79       59           1
    79       62           2
    79       81           1
    79       97           1
    79       99           3
    80        1           4
    80       25           1
    80       26           1
    80       46           1
    80       49           0
    80       64           4
    80       67           4
    80       77           0
    80       82           4
    80       83           3
    81       16           0
    81       28           4
    81       37           2
    81       39           1
    81       51           4
    81       60           3
    81       65           0
    81       84           0
    81       88           2
    81       98           4
    82       42           1
    82       45           0
    82       50           3
    82       52           1
    82       53           1
    82       58           2
    82       69           1
    82       76           0
    82       88           1
    82       89           2
    83       12           1
    83       21           2
    83       29           0
    83       34           4
    83       42           1
    83       56           0
    83       70           1
    83       85           1
    83       86           0
    83       97           4
    84       24           2
    84       25           0
    84       28           0
    84       40           2
    84       53           4
    84       60           4
    84       62           3
    84       73           3
    84       76           4
    84       90           0
    85       16           2
    85       27           1
    85       30           0
    85       46           3
    85       48           2
    85       51           4
    85       54           0
    85       61           1
    85       75           1
    85       89           1
    86       14           4
    86       19           2
    86       32           0
    86       35           4
    86       40           3
    86       56           0
    86       57           1
    86       81           0
    86       96           3
    86      100           0
    87        4           3
    87        7           1
    87        8           1
    87       44           3
    87       45           1
    87       46           2
    87       52           2
    87       62           1
    87       74           3
    87       97           0
    88       26           0
    88       30           2
    88       31           3
    88       35           3
    88       46           0
    88       66           1
    88       79           1
    88       85           4
    88       94           3
    88       96           3
    89        8           4
    89       19           4
    89       22           2
    89       41           2
    89       46           0
    89       58           0
    89       65           3
    89       90           2
    89       96           3
    89       98           4
    90        4           3
    90       26           3
    90       28           0
    90       46           4
    90       55           2
    90       63           1
    90       81           1
    90       90           4
    90       92           3
    90       97           2
    91        5           2
    91       12           3
    91       24           3
    91       29           2
    91       38           2
    91       41           4
    91       43           1
    91       53           1
    91       75           1
    91       90           1
    92        3           4
    92       16           3
    92       19           2
    92       20           1
    92       24           1
    92       76           2
    92       80           3
    92       81           3
    92       82           0
    92       93           4
    93       17           0
    93       22           3
    93       25           4
    93       27           2
    93       49           4
    93       52           0
    93       83           2
    93       86           2
    93       98           1
    93       99           1
    94       38           4
    94       44           4
    94       48           4
    94       63           2
    94       65           2
    94       66           0
    94       78           1
    94       80           2
    94       85           0
    94       86           1
    95        4           0
    95       25           4
    95       51           2
    95       52           3
    95       71           2
    95       75           2
    95       78           3
    95       79           1
    95       84           2
    95       94           2
    96        1           4
    96       11           3
    96       16           3
    96       42           4
    96       49           0
    96       60           0
    96       63           3
    96       72           1
    96       78           4
    96       94           4
    97       19           2
    97       26           0
    97       36           3
    97       40           0
    97       43           3
    97       50           0
    97       60           0
    97       64           0
    97       76           3
    97       93           1
    98        9           1
    98       12           2
    98       32           0
    98       35           1
    98       55           4
    98       64           4
    98       67           0
    98       75           0
    98       82           4
    98       85           4
    99        4           4
    99        6           4
    99       12           2
    99       19           0
    99       36           3
    99       55           2
    99       66           1
    99       76           2
    99       80           4
    99       91           4
   100        1           3
   100        5           2
   100       15           2
   100       24           1
   100       36           3
   100       46           0
   100       66           2
   100       76           2
   100       84           4
   100       85           4
